NAME: random-82-17786
TYPE: TSP
COMMENT: size=82 seed=17786
DIMENSION: 166
EDGE_WEIGHT_TYPE: EUC_2D
NODE_COORD_SECTION
+0 302 381
-0 302 381
+1 655 374
-1 692 230
+2 71 546
-2 300 704
+3 699 754
-3 132 971
+4 783 2
-4 347 396
+5 183 376
-5 949 846
+6 457 301
-6 969 898
+7 870 573
-7 312 504
+8 883 794
-8 783 999
+9 450 23
-9 72 747
+10 791 867
-10 7 943
+11 421 646
-11 810 981
+12 534 588
-12 882 346
+13 325 801
-13 365 373
+14 973 701
-14 943 939
+15 262 945
-15 760 786
+16 30 563
-16 671 77
+17 376 121
-17 693 762
+18 694 527
-18 856 584
+19 326 466
-19 82 228
+20 609 721
-20 940 918
+21 388 811
-21 712 950
+22 414 40
-22 659 822
+23 709 789
-23 161 114
+24 913 233
-24 138 148
+25 54 708
-25 730 171
+26 784 339
-26 785 253
+27 349 889
-27 850 643
+28 209 776
-28 999 756
+29 485 13
-29 831 439
+30 514 501
-30 593 192
+31 204 120
-31 211 831
+32 317 523
-32 340 631
+33 21 326
-33 148 594
+34 734 904
-34 785 953
+35 475 342
-35 591 957
+36 793 250
-36 306 285
+37 162 580
-37 301 210
+38 743 590
-38 178 54
+39 463 159
-39 98 935
+40 702 685
-40 190 315
+41 980 945
-41 425 709
+42 79 565
-42 185 140
+43 885 120
-43 223 181
+44 800 233
-44 615 936
+45 858 94
-45 403 864
+46 412 894
-46 567 208
+47 822 903
-47 677 142
+48 44 163
-48 629 737
+49 125 955
-49 683 276
+50 446 487
-50 569 431
+51 332 775
-51 900 535
+52 1 181
-52 379 212
+53 28 647
-53 712 830
+54 161 120
-54 922 917
+55 884 209
-55 790 63
+56 726 742
-56 839 56
+57 813 545
-57 592 797
+58 806 99
-58 607 542
+59 951 786
-59 793 443
+60 814 90
-60 225 207
+61 300 558
-61 146 284
+62 903 752
-62 914 763
+63 250 50
-63 314 751
+64 272 278
-64 816 232
+65 958 17
-65 467 389
+66 758 819
-66 903 54
+67 955 365
-67 217 759
+68 549 380
-68 734 245
+69 729 517
-69 389 254
+70 633 785
-70 527 353
+71 164 853
-71 306 683
+72 325 599
-72 23 559
+73 221 260
-73 704 973
+74 984 109
-74 517 991
+75 857 87
-75 704 574
+76 459 551
-76 881 167
+77 367 892
-77 569 559
+78 205 57
-78 547 635
+79 634 721
-79 851 151
+80 526 41
-80 17 386
+81 591 132
-81 216 222
+82 908 207
-82 813 330
PRECEDENCE_SECTION
+0 -0
+1 -1
+2 -2
+3 -3
+4 -4
+5 -5
+6 -6
+7 -7
+8 -8
+9 -9
+10 -10
+11 -11
+12 -12
+13 -13
+14 -14
+15 -15
+16 -16
+17 -17
+18 -18
+19 -19
+20 -20
+21 -21
+22 -22
+23 -23
+24 -24
+25 -25
+26 -26
+27 -27
+28 -28
+29 -29
+30 -30
+31 -31
+32 -32
+33 -33
+34 -34
+35 -35
+36 -36
+37 -37
+38 -38
+39 -39
+40 -40
+41 -41
+42 -42
+43 -43
+44 -44
+45 -45
+46 -46
+47 -47
+48 -48
+49 -49
+50 -50
+51 -51
+52 -52
+53 -53
+54 -54
+55 -55
+56 -56
+57 -57
+58 -58
+59 -59
+60 -60
+61 -61
+62 -62
+63 -63
+64 -64
+65 -65
+66 -66
+67 -67
+68 -68
+69 -69
+70 -70
+71 -71
+72 -72
+73 -73
+74 -74
+75 -75
+76 -76
+77 -77
+78 -78
+79 -79
+80 -80
+81 -81
+82 -82
EOF
